s td 50 6 55
b 1 1 2 12
b 2 10 11 22
b 3 34 45 46
b 4 44 54 55
b 5 2 3 12 13
b 6 9 10 21 22
b 7 3 4 15 27 39 51
b 8 4 5 15 27 39 51
b 9 5 15 17 27 39 51
b 10 5 17 27 29 39 51
b 11 5 17 29 39 41 51
b 12 5 7 17 29 41 51
b 13 5 6 7 17
b 14 7 17 19 29 41 51
b 15 7 19 29 31 41 51
b 16 7 9 19 31 41 51
b 17 7 8 9 19
b 18 9 19 21 31 41 51
b 19 9 19 20 21 31
b 20 9 21 31 33 41 51
b 21 9 21 22 33
b 22 21 31 33 41 43 51
b 23 21 31 32 33 43
b 24 31 33 41 43 51 53
b 25 31 41 42 43 53
b 26 41 51 52 53
b 27 33 43 53 54
b 28 19 29 30 31 41
b 29 7 17 18 19 29
b 30 29 39 40 41 51
b 31 17 27 28 29 39
b 32 5 15 16 17 27
b 33 3 15 27 39 49 51
b 34 3 15 27 37 39 49
b 35 3 15 25 27 37 49
b 36 3 13 15 25 37 49
b 37 3 13 23 25 37 49
b 38 3 12 13 23
b 39 13 23 25 35 37 49
b 40 13 23 24 25 35
b 41 23 25 35 37 47 49
b 42 25 35 36 37 47
b 43 23 35 46 47
b 44 37 47 48 49
b 45 3 13 14 15 25
b 46 15 25 26 27 37
b 47 27 37 38 39 49
b 48 39 49 50 51
b 49 23 34 35 46
b 50 33 43 44 54
1 5
2 6
3 49
4 50
5 38
6 21
7 8
7 33
8 9
9 10
9 32
10 11
10 31
11 12
11 30
12 13
12 14
14 15
14 29
15 16
15 28
16 17
16 18
18 19
18 20
20 21
20 22
22 23
22 24
24 25
24 26
24 27
27 50
33 34
33 48
34 35
34 47
35 36
35 46
36 37
36 45
37 38
37 39
39 40
39 41
41 42
41 43
41 44
43 49
